1524769
33,57,52,22,31,14,18,10,44,28,50,53,37,62,39,51,35,68,8,36,15,58,9,17,27,45,2,59,16,63,48,65,20,4,47,13,54,1,24,61,42,12,32,56,40,5,19,49,23,60,29,3,21,38,7,67,64,41,30,25,6,11,66,26,55,34,46,43